p cnf 318 1448
1 0
-2 0
-3 0
-4 0
-5 0
-6 0
-7 0
43 8 0
-43 -8 0
-8 -263 0
-8 -264 0
-8 -265 0
-9 263 0
-9 -264 0
-9 -265 0
-10 -263 0
-10 264 0
-10 -265 0
-11 263 0
-11 264 0
-11 -265 0
-12 -263 0
-12 -264 0
-12 265 0
-13 263 0
-13 -264 0
-13 265 0
-14 -263 0
-14 264 0
-14 265 0
-8 1 15 0
-8 1 50 0
-8 15 50 0
-9 2 16 0
-9 2 51 0
-9 16 51 0
-10 3 17 0
-10 3 52 0
-10 17 52 0
-11 4 18 0
-11 4 53 0
-11 18 53 0
-12 5 19 0
-12 5 54 0
-12 19 54 0
-13 6 20 0
-13 6 55 0
-13 20 55 0
-14 7 21 0
-14 7 56 0
-14 21 56 0
-8 -1 -15 -50 0
-9 -2 -16 -51 0
-10 -3 -17 -52 0
-11 -4 -18 -53 0
-12 -5 -19 -54 0
-13 -6 -20 -55 0
-14 -7 -21 -56 0
16 0
-15 0
-17 0
-18 0
-19 0
-20 0
-21 0
9 23 58 0
-9 -23 0
-9 -58 0
-23 -58 0
-22 -269 0
-22 -270 0
-22 -271 0
-23 269 0
-23 -270 0
-23 -271 0
-24 -269 0
-24 270 0
-24 -271 0
-25 269 0
-25 270 0
-25 -271 0
-26 -269 0
-26 -270 0
-26 271 0
-27 269 0
-27 -270 0
-27 271 0
-28 -269 0
-28 270 0
-28 271 0
-22 15 29 0
-22 15 64 0
-22 29 64 0
-23 16 30 0
-23 16 65 0
-23 30 65 0
-24 17 31 0
-24 17 66 0
-24 31 66 0
-25 18 32 0
-25 18 67 0
-25 32 67 0
-26 19 33 0
-26 19 68 0
-26 33 68 0
-27 20 34 0
-27 20 69 0
-27 34 69 0
-28 21 35 0
-28 21 70 0
-28 35 70 0
-22 -15 -29 -64 0
-23 -16 -30 -65 0
-24 -17 -31 -66 0
-25 -18 -32 -67 0
-26 -19 -33 -68 0
-27 -20 -34 -69 0
-28 -21 -35 -70 0
-29 -272 0
-29 -273 0
-29 -274 0
-30 272 0
-30 -273 0
-30 -274 0
-31 -272 0
-31 273 0
-31 -274 0
-32 272 0
-32 273 0
-32 -274 0
-33 -272 0
-33 -273 0
-33 274 0
-34 272 0
-34 -273 0
-34 274 0
-35 -272 0
-35 273 0
-35 274 0
-29 22 36 0
-29 22 71 0
-29 36 71 0
-30 23 37 0
-30 23 72 0
-30 37 72 0
-31 24 38 0
-31 24 73 0
-31 38 73 0
-32 25 39 0
-32 25 74 0
-32 39 74 0
-33 26 40 0
-33 26 75 0
-33 40 75 0
-34 27 41 0
-34 27 76 0
-34 41 76 0
-35 28 42 0
-35 28 77 0
-35 42 77 0
-29 -22 -36 -71 0
-30 -23 -37 -72 0
-31 -24 -38 -73 0
-32 -25 -39 -74 0
-33 -26 -40 -75 0
-34 -27 -41 -76 0
-35 -28 -42 -77 0
-36 -275 0
-36 -276 0
-36 -277 0
-37 275 0
-37 -276 0
-37 -277 0
-38 -275 0
-38 276 0
-38 -277 0
-39 275 0
-39 276 0
-39 -277 0
-40 -275 0
-40 -276 0
-40 277 0
-41 275 0
-41 -276 0
-41 277 0
-42 -275 0
-42 276 0
-42 277 0
-36 78 0
-36 29 0
-37 79 0
-37 30 0
-38 80 0
-38 31 0
-39 81 0
-39 32 0
-40 82 0
-40 33 0
-41 83 0
-41 34 0
-42 84 0
-42 35 0
46 0
-43 0
-44 0
-45 0
-47 0
-48 0
-49 0
88 53 4 0
-88 -53 0
-88 -4 0
-53 -4 0
-50 -281 0
-50 -282 0
-50 -283 0
-51 281 0
-51 -282 0
-51 -283 0
-52 -281 0
-52 282 0
-52 -283 0
-53 281 0
-53 282 0
-53 -283 0
-54 -281 0
-54 -282 0
-54 283 0
-55 281 0
-55 -282 0
-55 283 0
-56 -281 0
-56 282 0
-56 283 0
-50 92 57 8 0
-50 92 57 43 0
-50 92 8 43 0
-50 57 8 43 0
-51 93 58 9 0
-51 93 58 44 0
-51 93 9 44 0
-51 58 9 44 0
-52 94 59 10 0
-52 94 59 45 0
-52 94 10 45 0
-52 59 10 45 0
-53 95 60 11 0
-53 95 60 46 0
-53 95 11 46 0
-53 60 11 46 0
-54 96 61 12 0
-54 96 61 47 0
-54 96 12 47 0
-54 61 12 47 0
-55 97 62 13 0
-55 97 62 48 0
-55 97 13 48 0
-55 62 13 48 0
-56 98 63 14 0
-56 98 63 49 0
-56 98 14 49 0
-56 63 14 49 0
-50 -92 -57 -8 0
-50 -92 -57 -43 0
-50 -92 -8 -43 0
-50 -57 -8 -43 0
-51 -93 -58 -9 0
-51 -93 -58 -44 0
-51 -93 -9 -44 0
-51 -58 -9 -44 0
-52 -94 -59 -10 0
-52 -94 -59 -45 0
-52 -94 -10 -45 0
-52 -59 -10 -45 0
-53 -95 -60 -11 0
-53 -95 -60 -46 0
-53 -95 -11 -46 0
-53 -60 -11 -46 0
-54 -96 -61 -12 0
-54 -96 -61 -47 0
-54 -96 -12 -47 0
-54 -61 -12 -47 0
-55 -97 -62 -13 0
-55 -97 -62 -48 0
-55 -97 -13 -48 0
-55 -62 -13 -48 0
-56 -98 -63 -14 0
-56 -98 -63 -49 0
-56 -98 -14 -49 0
-56 -63 -14 -49 0
-57 -284 0
-57 -285 0
-57 -286 0
-58 284 0
-58 -285 0
-58 -286 0
-59 -284 0
-59 285 0
-59 -286 0
-60 284 0
-60 285 0
-60 -286 0
-61 -284 0
-61 -285 0
-61 286 0
-62 284 0
-62 -285 0
-62 286 0
-63 -284 0
-63 285 0
-63 286 0
-57 99 64 15 0
-57 99 64 50 0
-57 99 15 50 0
-57 64 15 50 0
-58 100 65 16 0
-58 100 65 51 0
-58 100 16 51 0
-58 65 16 51 0
-59 101 66 17 0
-59 101 66 52 0
-59 101 17 52 0
-59 66 17 52 0
-60 102 67 18 0
-60 102 67 53 0
-60 102 18 53 0
-60 67 18 53 0
-61 103 68 19 0
-61 103 68 54 0
-61 103 19 54 0
-61 68 19 54 0
-62 104 69 20 0
-62 104 69 55 0
-62 104 20 55 0
-62 69 20 55 0
-63 105 70 21 0
-63 105 70 56 0
-63 105 21 56 0
-63 70 21 56 0
-57 -99 -64 -15 0
-57 -99 -64 -50 0
-57 -99 -15 -50 0
-57 -64 -15 -50 0
-58 -100 -65 -16 0
-58 -100 -65 -51 0
-58 -100 -16 -51 0
-58 -65 -16 -51 0
-59 -101 -66 -17 0
-59 -101 -66 -52 0
-59 -101 -17 -52 0
-59 -66 -17 -52 0
-60 -102 -67 -18 0
-60 -102 -67 -53 0
-60 -102 -18 -53 0
-60 -67 -18 -53 0
-61 -103 -68 -19 0
-61 -103 -68 -54 0
-61 -103 -19 -54 0
-61 -68 -19 -54 0
-62 -104 -69 -20 0
-62 -104 -69 -55 0
-62 -104 -20 -55 0
-62 -69 -20 -55 0
-63 -105 -70 -21 0
-63 -105 -70 -56 0
-63 -105 -21 -56 0
-63 -70 -21 -56 0
-64 -287 0
-64 -288 0
-64 -289 0
-65 287 0
-65 -288 0
-65 -289 0
-66 -287 0
-66 288 0
-66 -289 0
-67 287 0
-67 288 0
-67 -289 0
-68 -287 0
-68 -288 0
-68 289 0
-69 287 0
-69 -288 0
-69 289 0
-70 -287 0
-70 288 0
-70 289 0
-64 106 71 22 0
-64 106 71 57 0
-64 106 22 57 0
-64 71 22 57 0
-65 107 72 23 0
-65 107 72 58 0
-65 107 23 58 0
-65 72 23 58 0
-66 108 73 24 0
-66 108 73 59 0
-66 108 24 59 0
-66 73 24 59 0
-67 109 74 25 0
-67 109 74 60 0
-67 109 25 60 0
-67 74 25 60 0
-68 110 75 26 0
-68 110 75 61 0
-68 110 26 61 0
-68 75 26 61 0
-69 111 76 27 0
-69 111 76 62 0
-69 111 27 62 0
-69 76 27 62 0
-70 112 77 28 0
-70 112 77 63 0
-70 112 28 63 0
-70 77 28 63 0
-64 -106 -71 -22 0
-64 -106 -71 -57 0
-64 -106 -22 -57 0
-64 -71 -22 -57 0
-65 -107 -72 -23 0
-65 -107 -72 -58 0
-65 -107 -23 -58 0
-65 -72 -23 -58 0
-66 -108 -73 -24 0
-66 -108 -73 -59 0
-66 -108 -24 -59 0
-66 -73 -24 -59 0
-67 -109 -74 -25 0
-67 -109 -74 -60 0
-67 -109 -25 -60 0
-67 -74 -25 -60 0
-68 -110 -75 -26 0
-68 -110 -75 -61 0
-68 -110 -26 -61 0
-68 -75 -26 -61 0
-69 -111 -76 -27 0
-69 -111 -76 -62 0
-69 -111 -27 -62 0
-69 -76 -27 -62 0
-70 -112 -77 -28 0
-70 -112 -77 -63 0
-70 -112 -28 -63 0
-70 -77 -28 -63 0
71 0
-72 0
-73 0
-74 0
-75 0
-76 0
-77 0
113 78 29 64 0
-113 -78 0
-113 -29 0
-113 -64 0
-78 -29 0
-78 -64 0
-29 -64 0
-78 -293 0
-78 -294 0
-78 -295 0
-79 293 0
-79 -294 0
-79 -295 0
-80 -293 0
-80 294 0
-80 -295 0
-81 293 0
-81 294 0
-81 -295 0
-82 -293 0
-82 -294 0
-82 295 0
-83 293 0
-83 -294 0
-83 295 0
-84 -293 0
-84 294 0
-84 295 0
-78 120 71 0
-78 120 36 0
-78 71 36 0
-79 121 72 0
-79 121 37 0
-79 72 37 0
-80 122 73 0
-80 122 38 0
-80 73 38 0
-81 123 74 0
-81 123 39 0
-81 74 39 0
-82 124 75 0
-82 124 40 0
-82 75 40 0
-83 125 76 0
-83 125 41 0
-83 76 41 0
-84 126 77 0
-84 126 42 0
-84 77 42 0
-78 -120 -71 -36 0
-79 -121 -72 -37 0
-80 -122 -73 -38 0
-81 -123 -74 -39 0
-82 -124 -75 -40 0
-83 -125 -76 -41 0
-84 -126 -77 -42 0
-85 -296 0
-85 -297 0
-85 -298 0
-86 296 0
-86 -297 0
-86 -298 0
-87 -296 0
-87 297 0
-87 -298 0
-88 296 0
-88 297 0
-88 -298 0
-89 -296 0
-89 -297 0
-89 298 0
-90 296 0
-90 -297 0
-90 298 0
-91 -296 0
-91 297 0
-91 298 0
-85 127 92 0
-85 127 43 0
-85 92 43 0
-86 128 93 0
-86 128 44 0
-86 93 44 0
-87 129 94 0
-87 129 45 0
-87 94 45 0
-88 130 95 0
-88 130 46 0
-88 95 46 0
-89 131 96 0
-89 131 47 0
-89 96 47 0
-90 132 97 0
-90 132 48 0
-90 97 48 0
-91 133 98 0
-91 133 49 0
-91 98 49 0
-85 -127 -92 -43 0
-86 -128 -93 -44 0
-87 -129 -94 -45 0
-88 -130 -95 -46 0
-89 -131 -96 -47 0
-90 -132 -97 -48 0
-91 -133 -98 -49 0
95 0
-92 0
-93 0
-94 0
-96 0
-97 0
-98 0
137 102 53 88 0
-137 -102 0
-137 -53 0
-137 -88 0
-102 -53 0
-102 -88 0
-53 -88 0
101 0
-99 0
-100 0
-102 0
-103 0
-104 0
-105 0
143 108 59 94 0
-143 -108 0
-143 -59 0
-143 -94 0
-108 -59 0
-108 -94 0
-59 -94 0
-106 -305 0
-106 -306 0
-106 -307 0
-107 305 0
-107 -306 0
-107 -307 0
-108 -305 0
-108 306 0
-108 -307 0
-109 305 0
-109 306 0
-109 -307 0
-110 -305 0
-110 -306 0
-110 307 0
-111 305 0
-111 -306 0
-111 307 0
-112 -305 0
-112 306 0
-112 307 0
-106 148 113 64 0
-106 148 113 99 0
-106 148 64 99 0
-106 113 64 99 0
-107 149 114 65 0
-107 149 114 100 0
-107 149 65 100 0
-107 114 65 100 0
-108 150 115 66 0
-108 150 115 101 0
-108 150 66 101 0
-108 115 66 101 0
-109 151 116 67 0
-109 151 116 102 0
-109 151 67 102 0
-109 116 67 102 0
-110 152 117 68 0
-110 152 117 103 0
-110 152 68 103 0
-110 117 68 103 0
-111 153 118 69 0
-111 153 118 104 0
-111 153 69 104 0
-111 118 69 104 0
-112 154 119 70 0
-112 154 119 105 0
-112 154 70 105 0
-112 119 70 105 0
-106 -148 -113 -64 0
-106 -148 -113 -99 0
-106 -148 -64 -99 0
-106 -113 -64 -99 0
-107 -149 -114 -65 0
-107 -149 -114 -100 0
-107 -149 -65 -100 0
-107 -114 -65 -100 0
-108 -150 -115 -66 0
-108 -150 -115 -101 0
-108 -150 -66 -101 0
-108 -115 -66 -101 0
-109 -151 -116 -67 0
-109 -151 -116 -102 0
-109 -151 -67 -102 0
-109 -116 -67 -102 0
-110 -152 -117 -68 0
-110 -152 -117 -103 0
-110 -152 -68 -103 0
-110 -117 -68 -103 0
-111 -153 -118 -69 0
-111 -153 -118 -104 0
-111 -153 -69 -104 0
-111 -118 -69 -104 0
-112 -154 -119 -70 0
-112 -154 -119 -105 0
-112 -154 -70 -105 0
-112 -119 -70 -105 0
115 0
-113 0
-114 0
-116 0
-117 0
-118 0
-119 0
157 122 73 108 0
-157 -122 0
-157 -73 0
-157 -108 0
-122 -73 0
-122 -108 0
-73 -108 0
-120 -311 0
-120 -312 0
-120 -313 0
-121 311 0
-121 -312 0
-121 -313 0
-122 -311 0
-122 312 0
-122 -313 0
-123 311 0
-123 312 0
-123 -313 0
-124 -311 0
-124 -312 0
-124 313 0
-125 311 0
-125 -312 0
-125 313 0
-126 -311 0
-126 312 0
-126 313 0
-120 162 113 0
-120 162 78 0
-120 113 78 0
-121 163 114 0
-121 163 79 0
-121 114 79 0
-122 164 115 0
-122 164 80 0
-122 115 80 0
-123 165 116 0
-123 165 81 0
-123 116 81 0
-124 166 117 0
-124 166 82 0
-124 117 82 0
-125 167 118 0
-125 167 83 0
-125 118 83 0
-126 168 119 0
-126 168 84 0
-126 119 84 0
-120 -162 -113 -78 0
-121 -163 -114 -79 0
-122 -164 -115 -80 0
-123 -165 -116 -81 0
-124 -166 -117 -82 0
-125 -167 -118 -83 0
-126 -168 -119 -84 0
-127 -314 0
-127 -315 0
-127 -316 0
-128 314 0
-128 -315 0
-128 -316 0
-129 -314 0
-129 315 0
-129 -316 0
-130 314 0
-130 315 0
-130 -316 0
-131 -314 0
-131 -315 0
-131 316 0
-132 314 0
-132 -315 0
-132 316 0
-133 -314 0
-133 315 0
-133 316 0
-127 169 134 0
-127 169 85 0
-127 134 85 0
-128 170 135 0
-128 170 86 0
-128 135 86 0
-129 171 136 0
-129 171 87 0
-129 136 87 0
-130 172 137 0
-130 172 88 0
-130 137 88 0
-131 173 138 0
-131 173 89 0
-131 138 89 0
-132 174 139 0
-132 174 90 0
-132 139 90 0
-133 175 140 0
-133 175 91 0
-133 140 91 0
-127 -169 -134 -85 0
-128 -170 -135 -86 0
-129 -171 -136 -87 0
-130 -172 -137 -88 0
-131 -173 -138 -89 0
-132 -174 -139 -90 0
-133 -175 -140 -91 0
139 0
-134 0
-135 0
-136 0
-137 0
-138 0
-140 0
181 146 97 132 0
-181 -146 0
-181 -97 0
-181 -132 0
-146 -97 0
-146 -132 0
-97 -132 0
147 0
-141 0
-142 0
-143 0
-144 0
-145 0
-146 0
189 154 105 140 0
-189 -154 0
-189 -105 0
-189 -140 0
-154 -105 0
-154 -140 0
-105 -140 0
-148 -323 0
-148 -324 0
-148 -325 0
-149 323 0
-149 -324 0
-149 -325 0
-150 -323 0
-150 324 0
-150 -325 0
-151 323 0
-151 324 0
-151 -325 0
-152 -323 0
-152 -324 0
-152 325 0
-153 323 0
-153 -324 0
-153 325 0
-154 -323 0
-154 324 0
-154 325 0
-148 190 155 106 0
-148 190 155 141 0
-148 190 106 141 0
-148 155 106 141 0
-149 191 156 107 0
-149 191 156 142 0
-149 191 107 142 0
-149 156 107 142 0
-150 192 157 108 0
-150 192 157 143 0
-150 192 108 143 0
-150 157 108 143 0
-151 193 158 109 0
-151 193 158 144 0
-151 193 109 144 0
-151 158 109 144 0
-152 194 159 110 0
-152 194 159 145 0
-152 194 110 145 0
-152 159 110 145 0
-153 195 160 111 0
-153 195 160 146 0
-153 195 111 146 0
-153 160 111 146 0
-154 196 161 112 0
-154 196 161 147 0
-154 196 112 147 0
-154 161 112 147 0
-148 -190 -155 -106 0
-148 -190 -155 -141 0
-148 -190 -106 -141 0
-148 -155 -106 -141 0
-149 -191 -156 -107 0
-149 -191 -156 -142 0
-149 -191 -107 -142 0
-149 -156 -107 -142 0
-150 -192 -157 -108 0
-150 -192 -157 -143 0
-150 -192 -108 -143 0
-150 -157 -108 -143 0
-151 -193 -158 -109 0
-151 -193 -158 -144 0
-151 -193 -109 -144 0
-151 -158 -109 -144 0
-152 -194 -159 -110 0
-152 -194 -159 -145 0
-152 -194 -110 -145 0
-152 -159 -110 -145 0
-153 -195 -160 -111 0
-153 -195 -160 -146 0
-153 -195 -111 -146 0
-153 -160 -111 -146 0
-154 -196 -161 -112 0
-154 -196 -161 -147 0
-154 -196 -112 -147 0
-154 -161 -112 -147 0
-155 -326 0
-155 -327 0
-155 -328 0
-156 326 0
-156 -327 0
-156 -328 0
-157 -326 0
-157 327 0
-157 -328 0
-158 326 0
-158 327 0
-158 -328 0
-159 -326 0
-159 -327 0
-159 328 0
-160 326 0
-160 -327 0
-160 328 0
-161 -326 0
-161 327 0
-161 328 0
-155 197 162 113 0
-155 197 162 148 0
-155 197 113 148 0
-155 162 113 148 0
-156 198 163 114 0
-156 198 163 149 0
-156 198 114 149 0
-156 163 114 149 0
-157 199 164 115 0
-157 199 164 150 0
-157 199 115 150 0
-157 164 115 150 0
-158 200 165 116 0
-158 200 165 151 0
-158 200 116 151 0
-158 165 116 151 0
-159 201 166 117 0
-159 201 166 152 0
-159 201 117 152 0
-159 166 117 152 0
-160 202 167 118 0
-160 202 167 153 0
-160 202 118 153 0
-160 167 118 153 0
-161 203 168 119 0
-161 203 168 154 0
-161 203 119 154 0
-161 168 119 154 0
-155 -197 -162 -113 0
-155 -197 -162 -148 0
-155 -197 -113 -148 0
-155 -162 -113 -148 0
-156 -198 -163 -114 0
-156 -198 -163 -149 0
-156 -198 -114 -149 0
-156 -163 -114 -149 0
-157 -199 -164 -115 0
-157 -199 -164 -150 0
-157 -199 -115 -150 0
-157 -164 -115 -150 0
-158 -200 -165 -116 0
-158 -200 -165 -151 0
-158 -200 -116 -151 0
-158 -165 -116 -151 0
-159 -201 -166 -117 0
-159 -201 -166 -152 0
-159 -201 -117 -152 0
-159 -166 -117 -152 0
-160 -202 -167 -118 0
-160 -202 -167 -153 0
-160 -202 -118 -153 0
-160 -167 -118 -153 0
-161 -203 -168 -119 0
-161 -203 -168 -154 0
-161 -203 -119 -154 0
-161 -168 -119 -154 0
-162 -329 0
-162 -330 0
-162 -331 0
-163 329 0
-163 -330 0
-163 -331 0
-164 -329 0
-164 330 0
-164 -331 0
-165 329 0
-165 330 0
-165 -331 0
-166 -329 0
-166 -330 0
-166 331 0
-167 329 0
-167 -330 0
-167 331 0
-168 -329 0
-168 330 0
-168 331 0
-162 204 155 0
-162 204 120 0
-162 155 120 0
-163 205 156 0
-163 205 121 0
-163 156 121 0
-164 206 157 0
-164 206 122 0
-164 157 122 0
-165 207 158 0
-165 207 123 0
-165 158 123 0
-166 208 159 0
-166 208 124 0
-166 159 124 0
-167 209 160 0
-167 209 125 0
-167 160 125 0
-168 210 161 0
-168 210 126 0
-168 161 126 0
-162 -204 -155 -120 0
-163 -205 -156 -121 0
-164 -206 -157 -122 0
-165 -207 -158 -123 0
-166 -208 -159 -124 0
-167 -209 -160 -125 0
-168 -210 -161 -126 0
-169 -332 0
-169 -333 0
-169 -334 0
-170 332 0
-170 -333 0
-170 -334 0
-171 -332 0
-171 333 0
-171 -334 0
-172 332 0
-172 333 0
-172 -334 0
-173 -332 0
-173 -333 0
-173 334 0
-174 332 0
-174 -333 0
-174 334 0
-175 -332 0
-175 333 0
-175 334 0
-169 211 176 0
-169 211 127 0
-169 176 127 0
-170 212 177 0
-170 212 128 0
-170 177 128 0
-171 213 178 0
-171 213 129 0
-171 178 129 0
-172 214 179 0
-172 214 130 0
-172 179 130 0
-173 215 180 0
-173 215 131 0
-173 180 131 0
-174 216 181 0
-174 216 132 0
-174 181 132 0
-175 217 182 0
-175 217 133 0
-175 182 133 0
-169 -211 -176 -127 0
-170 -212 -177 -128 0
-171 -213 -178 -129 0
-172 -214 -179 -130 0
-173 -215 -180 -131 0
-174 -216 -181 -132 0
-175 -217 -182 -133 0
180 0
-176 0
-177 0
-178 0
-179 0
-181 0
-182 0
222 187 138 173 0
-222 -187 0
-222 -138 0
-222 -173 0
-187 -138 0
-187 -173 0
-138 -173 0
-183 -338 0
-183 -339 0
-183 -340 0
-184 338 0
-184 -339 0
-184 -340 0
-185 -338 0
-185 339 0
-185 -340 0
-186 338 0
-186 339 0
-186 -340 0
-187 -338 0
-187 -339 0
-187 340 0
-188 338 0
-188 -339 0
-188 340 0
-189 -338 0
-189 339 0
-189 340 0
-183 225 190 141 0
-183 225 190 176 0
-183 225 141 176 0
-183 190 141 176 0
-184 226 191 142 0
-184 226 191 177 0
-184 226 142 177 0
-184 191 142 177 0
-185 227 192 143 0
-185 227 192 178 0
-185 227 143 178 0
-185 192 143 178 0
-186 228 193 144 0
-186 228 193 179 0
-186 228 144 179 0
-186 193 144 179 0
-187 229 194 145 0
-187 229 194 180 0
-187 229 145 180 0
-187 194 145 180 0
-188 230 195 146 0
-188 230 195 181 0
-188 230 146 181 0
-188 195 146 181 0
-189 231 196 147 0
-189 231 196 182 0
-189 231 147 182 0
-189 196 147 182 0
-183 -225 -190 -141 0
-183 -225 -190 -176 0
-183 -225 -141 -176 0
-183 -190 -141 -176 0
-184 -226 -191 -142 0
-184 -226 -191 -177 0
-184 -226 -142 -177 0
-184 -191 -142 -177 0
-185 -227 -192 -143 0
-185 -227 -192 -178 0
-185 -227 -143 -178 0
-185 -192 -143 -178 0
-186 -228 -193 -144 0
-186 -228 -193 -179 0
-186 -228 -144 -179 0
-186 -193 -144 -179 0
-187 -229 -194 -145 0
-187 -229 -194 -180 0
-187 -229 -145 -180 0
-187 -194 -145 -180 0
-188 -230 -195 -146 0
-188 -230 -195 -181 0
-188 -230 -146 -181 0
-188 -195 -146 -181 0
-189 -231 -196 -147 0
-189 -231 -196 -182 0
-189 -231 -147 -182 0
-189 -196 -147 -182 0
-190 -341 0
-190 -342 0
-190 -343 0
-191 341 0
-191 -342 0
-191 -343 0
-192 -341 0
-192 342 0
-192 -343 0
-193 341 0
-193 342 0
-193 -343 0
-194 -341 0
-194 -342 0
-194 343 0
-195 341 0
-195 -342 0
-195 343 0
-196 -341 0
-196 342 0
-196 343 0
-190 232 197 148 0
-190 232 197 183 0
-190 232 148 183 0
-190 197 148 183 0
-191 233 198 149 0
-191 233 198 184 0
-191 233 149 184 0
-191 198 149 184 0
-192 234 199 150 0
-192 234 199 185 0
-192 234 150 185 0
-192 199 150 185 0
-193 235 200 151 0
-193 235 200 186 0
-193 235 151 186 0
-193 200 151 186 0
-194 236 201 152 0
-194 236 201 187 0
-194 236 152 187 0
-194 201 152 187 0
-195 237 202 153 0
-195 237 202 188 0
-195 237 153 188 0
-195 202 153 188 0
-196 238 203 154 0
-196 238 203 189 0
-196 238 154 189 0
-196 203 154 189 0
-190 -232 -197 -148 0
-190 -232 -197 -183 0
-190 -232 -148 -183 0
-190 -197 -148 -183 0
-191 -233 -198 -149 0
-191 -233 -198 -184 0
-191 -233 -149 -184 0
-191 -198 -149 -184 0
-192 -234 -199 -150 0
-192 -234 -199 -185 0
-192 -234 -150 -185 0
-192 -199 -150 -185 0
-193 -235 -200 -151 0
-193 -235 -200 -186 0
-193 -235 -151 -186 0
-193 -200 -151 -186 0
-194 -236 -201 -152 0
-194 -236 -201 -187 0
-194 -236 -152 -187 0
-194 -201 -152 -187 0
-195 -237 -202 -153 0
-195 -237 -202 -188 0
-195 -237 -153 -188 0
-195 -202 -153 -188 0
-196 -238 -203 -154 0
-196 -238 -203 -189 0
-196 -238 -154 -189 0
-196 -203 -154 -189 0
203 0
-197 0
-198 0
-199 0
-200 0
-201 0
-202 0
245 210 161 196 0
-245 -210 0
-245 -161 0
-245 -196 0
-210 -161 0
-210 -196 0
-161 -196 0
-204 -347 0
-204 -348 0
-204 -349 0
-205 347 0
-205 -348 0
-205 -349 0
-206 -347 0
-206 348 0
-206 -349 0
-207 347 0
-207 348 0
-207 -349 0
-208 -347 0
-208 -348 0
-208 349 0
-209 347 0
-209 -348 0
-209 349 0
-210 -347 0
-210 348 0
-210 349 0
-204 246 197 0
-204 246 162 0
-204 197 162 0
-205 247 198 0
-205 247 163 0
-205 198 163 0
-206 248 199 0
-206 248 164 0
-206 199 164 0
-207 249 200 0
-207 249 165 0
-207 200 165 0
-208 250 201 0
-208 250 166 0
-208 201 166 0
-209 251 202 0
-209 251 167 0
-209 202 167 0
-210 252 203 0
-210 252 168 0
-210 203 168 0
-204 -246 -197 -162 0
-205 -247 -198 -163 0
-206 -248 -199 -164 0
-207 -249 -200 -165 0
-208 -250 -201 -166 0
-209 -251 -202 -167 0
-210 -252 -203 -168 0
-211 -350 0
-211 -351 0
-211 -352 0
-212 350 0
-212 -351 0
-212 -352 0
-213 -350 0
-213 351 0
-213 -352 0
-214 350 0
-214 351 0
-214 -352 0
-215 -350 0
-215 -351 0
-215 352 0
-216 350 0
-216 -351 0
-216 352 0
-217 -350 0
-217 351 0
-217 352 0
-211 169 0
-211 218 0
-212 170 0
-212 219 0
-213 171 0
-213 220 0
-214 172 0
-214 221 0
-215 173 0
-215 222 0
-216 174 0
-216 223 0
-217 175 0
-217 224 0
-218 -353 0
-218 -354 0
-218 -355 0
-219 353 0
-219 -354 0
-219 -355 0
-220 -353 0
-220 354 0
-220 -355 0
-221 353 0
-221 354 0
-221 -355 0
-222 -353 0
-222 -354 0
-222 355 0
-223 353 0
-223 -354 0
-223 355 0
-224 -353 0
-224 354 0
-224 355 0
-218 176 225 0
-218 176 211 0
-218 225 211 0
-219 177 226 0
-219 177 212 0
-219 226 212 0
-220 178 227 0
-220 178 213 0
-220 227 213 0
-221 179 228 0
-221 179 214 0
-221 228 214 0
-222 180 229 0
-222 180 215 0
-222 229 215 0
-223 181 230 0
-223 181 216 0
-223 230 216 0
-224 182 231 0
-224 182 217 0
-224 231 217 0
-218 -176 -225 -211 0
-219 -177 -226 -212 0
-220 -178 -227 -213 0
-221 -179 -228 -214 0
-222 -180 -229 -215 0
-223 -181 -230 -216 0
-224 -182 -231 -217 0
230 0
-225 0
-226 0
-227 0
-228 0
-229 0
-231 0
188 237 223 0
-188 -237 0
-188 -223 0
-237 -223 0
236 0
-232 0
-233 0
-234 0
-235 0
-237 0
-238 0
194 243 229 0
-194 -243 0
-194 -229 0
-243 -229 0
240 0
-239 0
-241 0
-242 0
-243 0
-244 0
-245 0
198 247 233 0
-198 -247 0
-198 -233 0
-247 -233 0
-246 -365 0
-246 -366 0
-246 -367 0
-247 365 0
-247 -366 0
-247 -367 0
-248 -365 0
-248 366 0
-248 -367 0
-249 365 0
-249 366 0
-249 -367 0
-250 -365 0
-250 -366 0
-250 367 0
-251 365 0
-251 -366 0
-251 367 0
-252 -365 0
-252 366 0
-252 367 0
-246 204 0
-246 239 0
-247 205 0
-247 240 0
-248 206 0
-248 241 0
-249 207 0
-249 242 0
-250 208 0
-250 243 0
-251 209 0
-251 244 0
-252 210 0
-252 245 0
8 50 218 0
57 183 0
22 64 106 148 190 0
51 58 65 79 0
86 107 121 0
128 149 156 163 0
170 184 191 205 0
23 65 107 149 191 0
24 66 108 150 192 0
61 187 0
174 188 195 209 0
28 70 112 154 196 0